mixintcount/benchmarks/random_v2l/8_8_316.in
32 10
#	x1	x2	x3	x4	x5	x6	x7	x8;		0 = Real; 1 = Integer
	1	1	1	1	1	1	1	1
1	-1	-2	9	4	-2	7	6	3	109
1	-2	9	6	-2	7	7	-9	6	188
1	2	-3	-10	-4	1	8	-2	-10	72
1	-6	9	-3	-6	-4	3	-8	10	170
1	9	3	0	-7	-10	-2	7	-2	-20
1	3	-1	8	4	9	-6	3	-7	-15
1	0	1	1	-5	3	0	0	7	-279
1	-9	9	3	-10	6	-7	0	7	139
1	6	3	1	8	-7	8	5	5	-79
1	7	-3	8	-1	8	-4	9	-10	116
1	-2	1	3	10	2	1	0	0	240
1	3	8	-10	6	3	1	-6	-2	222
1	10	-8	-1	4	7	6	-1	-5	-32
1	5	-9	2	3	-1	-10	-5	-4	-218
1	5	6	8	9	-2	5	8	-9	-222
1	-2	-5	3	-10	-7	5	-1	7	277
1	1	0	0	0	0	0	0	0	316
1	-1	0	0	0	0	0	0	0	316
1	0	1	0	0	0	0	0	0	316
1	0	-1	0	0	0	0	0	0	316
1	0	0	1	0	0	0	0	0	316
1	0	0	-1	0	0	0	0	0	316
1	0	0	0	1	0	0	0	0	316
1	0	0	0	-1	0	0	0	0	316
1	0	0	0	0	1	0	0	0	316
1	0	0	0	0	-1	0	0	0	316
1	0	0	0	0	0	1	0	0	316
1	0	0	0	0	0	-1	0	0	316
1	0	0	0	0	0	0	1	0	316
1	0	0	0	0	0	0	-1	0	316
1	0	0	0	0	0	0	0	1	316
1	0	0	0	0	0	0	0	-1	316
